Maximize
  - 2.897144490576 edge_0_1_0_0 - 1.2233600128512 edge_0_3_0_0
   - 1.3702623653768 edge_0_4_0_0 - 3.0275616443992 edge_0_6_0_0
   - 2.529030923928 edge_0_7_0_0 - 2.859801968628 edge_0_8_0_0
   - 0.7497929960798999 edge_0_9_0_0 - 0.05364996087243 edge_0_10_0_0
   - 1.0134473912885 edge_0_12_0_0 - 2.63049424337 edge_0_15_0_0
   - 3.239895214752 edge_0_16_0_0 - 2.6424695419884 edge_0_19_0_0
   - 3.545402403712 edge_0_20_0_0 - 0.0395241691513145 edge_1_3_0_0
   - 0.1875061931303297 edge_1_4_0_0 + 0.0578679957917523 edge_1_6_0_0
   - 0.0558134218377773 edge_1_7_0_0 - 0.342068693952138 edge_1_8_0_0
   - 0.0860462799580029 edge_1_9_0_0 - 0.2125238214449845 edge_1_10_0_0
   - 0.2442294808219662 edge_1_12_0_0 - 0.6283146796590273 edge_1_15_0_0
   - 1.2336612888167 edge_1_17_0_0 - 1.191590963536815 edge_1_19_0_0
   - 0.375659743395719 edge_1_20_0_0 + 0.4270618339322578 edge_3_1_0_0
   + 0.1069528378511335 edge_3_4_0_0 + 0.3293669045983261 edge_3_7_0_0
   + 0.5451279143238421 edge_3_8_0_0 - 0.00704428793975926 edge_3_12_0_0
   + 0.059045554401372 edge_3_15_0_0 + 0.0620301706269437 edge_3_19_0_0
   - 0.1719019266272721 edge_4_1_0_0 - 0.0795081810115942 edge_4_3_0_0
   - 0.033162603236481 edge_4_7_0_0 - 0.1349669440812608 edge_4_8_0_0
   - 0.2901188935656924 edge_4_12_0_0 - 0.2314174012635034 edge_4_19_0_0
   - 0.4596980586500174 edge_6_1_0_0 + 0.234467935463124 edge_6_7_0_0
   + 0.7594856372559675 edge_6_8_0_0 + 0.4322344379320654 edge_6_9_0_0
   - 0.1146575998750502 edge_6_10_0_0 + 0.1482703064979011 edge_6_12_0_0
   - 0.10269016987579 edge_6_15_0_0 - 0.0981459542135802 edge_6_16_0_0
   - 2.122340047684123 edge_6_17_0_0 - 0.443990440336292 edge_6_19_0_0
   + 0.46900958519856 edge_6_20_0_0 + 0.3832398336770014 edge_7_1_0_0
   - 0.4664238376785178 edge_7_3_0_0 - 0.0770404771467052 edge_7_4_0_0
   + 0.9559737677704908 edge_7_6_0_0 + 2.354795784908472 edge_7_8_0_0
   + 1.28500951394354 edge_7_9_0_0 + 0.26022239786878 edge_7_10_0_0
   - 0.0760455385904303 edge_7_11_0_0 + 0.908905781862573 edge_7_12_0_0
   + 0.62940192447176 edge_7_15_0_0 + 0.5475901535883737 edge_7_16_0_0
   - 0.9944692426009041 edge_7_17_0_0 - 0.1625158063055769 edge_7_19_0_0
   + 0.60343792758744 edge_7_20_0_0 + 0.4631383919622464 edge_8_1_0_0
   - 0.2809237140611925 edge_8_3_0_0 + 0.4001249418378788 edge_8_4_0_0
   + 2.330850228054147 edge_8_6_0_0 + 4.288766442098696 edge_8_7_0_0
   + 0.3157069145857477 edge_8_9_0_0 + 0.6527654872860265 edge_8_10_0_0
   + 0.8272191799345049 edge_8_12_0_0 + 0.6272807241833157 edge_8_15_0_0
   - 0.1853119812164746 edge_8_16_0_0 + 0.0350898308542829 edge_8_17_0_0
   + 0.6242938205255121 edge_8_19_0_0 + 1.255937375086451 edge_8_20_0_0
   + 0.1823858708228155 edge_9_1_0_0 + 0.5712029060463972 edge_9_6_0_0
   + 0.6132906263101143 edge_9_7_0_0 + 0.8586305622295564 edge_9_8_0_0
   + 0.3056533336722955 edge_9_9_0_0 + 0.2096835605774577 edge_9_10_0_0
   + 0.00102070518489808 edge_9_12_0_0 - 0.1267731041421684 edge_9_15_0_0
   - 0.3152893215592834 edge_9_17_0_0 - 0.1010949830012337 edge_9_19_0_0
   + 0.7205411538298246 edge_9_20_0_0 + 0.5207352708831411 edge_10_1_0_0
   + 0.3649315558837248 edge_10_6_0_0 + 0.629480875455422 edge_10_7_0_0
   + 1.054744396008852 edge_10_8_0_0 + 0.6260682864116079 edge_10_9_0_0
   + 0.4844602434272564 edge_10_11_0_0 + 1.667851526484957 edge_10_12_0_0
   + 0.063980185339446 edge_10_14_0_0 + 1.403729181326 edge_10_15_0_0
   + 0.6783049897725463 edge_10_17_0_0 + 1.234936780995273 edge_10_19_0_0
   + 2.181968382696717 edge_10_20_0_0 - 0.724068182537282 edge_11_6_0_0
   - 1.351294467261044 edge_11_7_0_0 - 1.108577350039934 edge_11_8_0_0
   - 0.1240042489650073 edge_11_9_0_0 - 0.5101513280053289 edge_11_15_0_0
   - 0.8657573810302818 edge_11_16_0_0 - 0.5096640951353958 edge_11_19_0_0
   - 0.0190547045008055 edge_12_1_0_0 - 0.6847306346374277 edge_12_3_0_0
   + 0.2086262114433607 edge_12_4_0_0 + 0.9292824243159956 edge_12_6_0_0
   + 0.3065707498593451 edge_12_7_0_0 + 0.2354928503431253 edge_12_8_0_0
   + 1.169683061710716 edge_12_9_0_0 + 0.5517907144393038 edge_12_10_0_0
   + 3.712084835827376 edge_12_11_0_0 + 0.9083010640350306 edge_12_12_0_0
   + 0.5199706947500546 edge_12_13_0_0 + 0.4026102262628571 edge_12_14_0_0
   + 3.175979693996179 edge_12_15_0_0 + 1.512186908937549 edge_12_16_0_0
   + 1.53221801597242 edge_12_17_0_0 + 1.5224990010868 edge_12_18_0_0
   + 1.557693735582163 edge_12_19_0_0 + 1.21810789267056 edge_12_20_0_0
   + 0.7315780603199562 edge_13_15_0_0 - 0.4061700821565855 edge_14_6_0_0
   - 1.132790348166642 edge_14_7_0_0 - 0.58381455800426 edge_14_8_0_0
   - 0.3660622649668822 edge_14_9_0_0 + 0.0339913953528471 edge_14_12_0_0
   + 0.8857206671460001 edge_14_15_0_0 - 0.0523297462430618 edge_14_16_0_0
   - 0.301377840535364 edge_14_19_0_0 - 0.01184104715843 edge_14_20_0_0
   - 0.4378693788192689 edge_15_1_0_0 - 0.038278493490888 edge_15_6_0_0
   - 0.0604424702107344 edge_15_7_0_0 + 0.3494062948458563 edge_15_8_0_0
   - 0.1823501606748312 edge_15_9_0_0 + 0.0625101757792849 edge_15_10_0_0
   + 1.779359234843013 edge_15_11_0_0 + 1.454566185219796 edge_15_12_0_0
   + 2.446254789903792 edge_15_13_0_0 + 4.033661759856115 edge_15_14_0_0
   + 1.733507883072 edge_15_16_0_0 + 0.2604509333874 edge_15_17_0_0
   + 2.082462051012276 edge_15_19_0_0 + 1.055320998040582 edge_15_20_0_0
   - 0.1645214185220735 edge_16_6_0_0 + 0.0331134184507093 edge_16_7_0_0
   + 0.1813941507480624 edge_16_8_0_0 + 0.9468528159855613 edge_16_9_0_0
   + 1.306295499084521 edge_16_12_0_0 + 0.2409419073461826 edge_16_14_0_0
   + 0.952190387232 edge_16_15_0_0 + 0.0315359901965266 edge_16_17_0_0
   + 2.12753136335611 edge_16_19_0_0 + 1.384372407712 edge_16_20_0_0
   - 0.4574980903252248 edge_17_1_0_0 - 2.131935528899606 edge_17_7_0_0
   - 0.0283267582983196 edge_17_8_0_0 + 0.4120588290264149 edge_17_12_0_0
   + 0.1172141564038692 edge_17_15_0_0 - 1.083147231964321 edge_17_16_0_0
   + 0.7163328016971651 edge_17_18_0_0 + 1.789650846682887 edge_17_19_0_0
   + 0.5342946568725594 edge_17_20_0_0 - 0.5709908676915473 edge_18_12_0_0
   - 0.2480811638723519 edge_18_17_0_0 - 1.302115571148 edge_18_20_0_0
   - 0.7207775411587991 edge_19_1_0_0 - 0.6225633567044052 edge_19_3_0_0
   + 0.1655663626483826 edge_19_4_0_0 - 0.3103573004385228 edge_19_6_0_0
   - 0.0469138543525476 edge_19_7_0_0 - 0.1163123322998934 edge_19_8_0_0
   + 0.6342103849992946 edge_19_9_0_0 + 0.453784273155809 edge_19_11_0_0
   + 0.6079806514592275 edge_19_12_0_0 + 0.928610832303559 edge_19_14_0_0
   + 0.5907248884772198 edge_19_15_0_0 + 0.8245166492073982 edge_19_16_0_0
   + 3.61484394600365 edge_19_17_0_0 + 3.64848095567833 edge_19_18_0_0
   + 0.959905990783028 edge_19_20_0_0 - 1.765032288533759 edge_20_1_0_0
   - 2.38627565606885 edge_20_6_0_0 - 2.276399976181815 edge_20_8_0_0
   - 1.207776875638635 edge_20_17_0_0 - 1.397499070371368 edge_20_19_0_0
Subject To
 one_parent_1: edge_0_1_0_0 + edge_3_1_0_0 + edge_4_1_0_0 + edge_6_1_0_0
   + edge_7_1_0_0 + edge_8_1_0_0 + edge_9_1_0_0 + edge_10_1_0_0
   + edge_12_1_0_0 + edge_15_1_0_0 + edge_17_1_0_0 + edge_19_1_0_0
   + edge_20_1_0_0 = 1
 consume_one_flow_unit_1: flow_0_1_0_0 - flow_1_3_0_0 - flow_1_4_0_0
   - flow_1_6_0_0 - flow_1_7_0_0 - flow_1_8_0_0 - flow_1_9_0_0
   - flow_1_10_0_0 - flow_1_12_0_0 - flow_1_15_0_0 - flow_1_17_0_0
   - flow_1_19_0_0 - flow_1_20_0_0 + flow_3_1_0_0 + flow_4_1_0_0
   + flow_6_1_0_0 + flow_7_1_0_0 + flow_8_1_0_0 + flow_9_1_0_0
   + flow_10_1_0_0 + flow_12_1_0_0 + flow_15_1_0_0 + flow_17_1_0_0
   + flow_19_1_0_0 + flow_20_1_0_0 = 1
 one_parent_2: = 1
 consume_one_flow_unit_2: = 1
 one_parent_3: edge_0_3_0_0 + edge_1_3_0_0 + edge_4_3_0_0 + edge_7_3_0_0
   + edge_8_3_0_0 + edge_12_3_0_0 + edge_19_3_0_0 = 1
 consume_one_flow_unit_3: flow_0_3_0_0 + flow_1_3_0_0 - flow_3_1_0_0
   - flow_3_4_0_0 - flow_3_7_0_0 - flow_3_8_0_0 - flow_3_12_0_0
   - flow_3_15_0_0 - flow_3_19_0_0 + flow_4_3_0_0 + flow_7_3_0_0
   + flow_8_3_0_0 + flow_12_3_0_0 + flow_19_3_0_0 = 1
 one_parent_4: edge_0_4_0_0 + edge_1_4_0_0 + edge_3_4_0_0 + edge_7_4_0_0
   + edge_8_4_0_0 + edge_12_4_0_0 + edge_19_4_0_0 = 1
 consume_one_flow_unit_4: flow_0_4_0_0 + flow_1_4_0_0 + flow_3_4_0_0
   - flow_4_1_0_0 - flow_4_3_0_0 - flow_4_7_0_0 - flow_4_8_0_0
   - flow_4_12_0_0 - flow_4_19_0_0 + flow_7_4_0_0 + flow_8_4_0_0
   + flow_12_4_0_0 + flow_19_4_0_0 = 1
 one_parent_5: = 1
 consume_one_flow_unit_5: = 1
 one_parent_6: edge_0_6_0_0 + edge_1_6_0_0 + edge_7_6_0_0 + edge_8_6_0_0
   + edge_9_6_0_0 + edge_10_6_0_0 + edge_11_6_0_0 + edge_12_6_0_0
   + edge_14_6_0_0 + edge_15_6_0_0 + edge_16_6_0_0 + edge_19_6_0_0
   + edge_20_6_0_0 = 1
 consume_one_flow_unit_6: flow_0_6_0_0 + flow_1_6_0_0 - flow_6_1_0_0
   - flow_6_7_0_0 - flow_6_8_0_0 - flow_6_9_0_0 - flow_6_10_0_0
   - flow_6_12_0_0 - flow_6_15_0_0 - flow_6_16_0_0 - flow_6_17_0_0
   - flow_6_19_0_0 - flow_6_20_0_0 + flow_7_6_0_0 + flow_8_6_0_0
   + flow_9_6_0_0 + flow_10_6_0_0 + flow_11_6_0_0 + flow_12_6_0_0
   + flow_14_6_0_0 + flow_15_6_0_0 + flow_16_6_0_0 + flow_19_6_0_0
   + flow_20_6_0_0 = 1
 one_parent_7: edge_0_7_0_0 + edge_1_7_0_0 + edge_3_7_0_0 + edge_4_7_0_0
   + edge_6_7_0_0 + edge_8_7_0_0 + edge_9_7_0_0 + edge_10_7_0_0
   + edge_11_7_0_0 + edge_12_7_0_0 + edge_14_7_0_0 + edge_15_7_0_0
   + edge_16_7_0_0 + edge_17_7_0_0 + edge_19_7_0_0 = 1
 consume_one_flow_unit_7: flow_0_7_0_0 + flow_1_7_0_0 + flow_3_7_0_0
   + flow_4_7_0_0 + flow_6_7_0_0 - flow_7_1_0_0 - flow_7_3_0_0
   - flow_7_4_0_0 - flow_7_6_0_0 - flow_7_8_0_0 - flow_7_9_0_0
   - flow_7_10_0_0 - flow_7_11_0_0 - flow_7_12_0_0 - flow_7_15_0_0
   - flow_7_16_0_0 - flow_7_17_0_0 - flow_7_19_0_0 - flow_7_20_0_0
   + flow_8_7_0_0 + flow_9_7_0_0 + flow_10_7_0_0 + flow_11_7_0_0
   + flow_12_7_0_0 + flow_14_7_0_0 + flow_15_7_0_0 + flow_16_7_0_0
   + flow_17_7_0_0 + flow_19_7_0_0 = 1
 one_parent_8: edge_0_8_0_0 + edge_1_8_0_0 + edge_3_8_0_0 + edge_4_8_0_0
   + edge_6_8_0_0 + edge_7_8_0_0 + edge_9_8_0_0 + edge_10_8_0_0
   + edge_11_8_0_0 + edge_12_8_0_0 + edge_14_8_0_0 + edge_15_8_0_0
   + edge_16_8_0_0 + edge_17_8_0_0 + edge_19_8_0_0 + edge_20_8_0_0 = 1
 consume_one_flow_unit_8: flow_0_8_0_0 + flow_1_8_0_0 + flow_3_8_0_0
   + flow_4_8_0_0 + flow_6_8_0_0 + flow_7_8_0_0 - flow_8_1_0_0
   - flow_8_3_0_0 - flow_8_4_0_0 - flow_8_6_0_0 - flow_8_7_0_0
   - flow_8_9_0_0 - flow_8_10_0_0 - flow_8_12_0_0 - flow_8_15_0_0
   - flow_8_16_0_0 - flow_8_17_0_0 - flow_8_19_0_0 - flow_8_20_0_0
   + flow_9_8_0_0 + flow_10_8_0_0 + flow_11_8_0_0 + flow_12_8_0_0
   + flow_14_8_0_0 + flow_15_8_0_0 + flow_16_8_0_0 + flow_17_8_0_0
   + flow_19_8_0_0 + flow_20_8_0_0 = 1
 one_parent_9: edge_0_9_0_0 + edge_1_9_0_0 + edge_6_9_0_0 + edge_7_9_0_0
   + edge_8_9_0_0 + edge_9_9_0_0 + edge_10_9_0_0 + edge_11_9_0_0
   + edge_12_9_0_0 + edge_14_9_0_0 + edge_15_9_0_0 + edge_16_9_0_0
   + edge_19_9_0_0 = 1
 consume_one_flow_unit_9: flow_0_9_0_0 + flow_1_9_0_0 + flow_6_9_0_0
   + flow_7_9_0_0 + flow_8_9_0_0 - flow_9_1_0_0 - flow_9_6_0_0
   - flow_9_7_0_0 - flow_9_8_0_0 - flow_9_10_0_0 - flow_9_12_0_0
   - flow_9_15_0_0 - flow_9_17_0_0 - flow_9_19_0_0 - flow_9_20_0_0
   + flow_10_9_0_0 + flow_11_9_0_0 + flow_12_9_0_0 + flow_14_9_0_0
   + flow_15_9_0_0 + flow_16_9_0_0 + flow_19_9_0_0 = 1
 one_parent_10: edge_0_10_0_0 + edge_1_10_0_0 + edge_6_10_0_0
   + edge_7_10_0_0 + edge_8_10_0_0 + edge_9_10_0_0 + edge_12_10_0_0
   + edge_15_10_0_0 = 1
 consume_one_flow_unit_10: flow_0_10_0_0 + flow_1_10_0_0 + flow_6_10_0_0
   + flow_7_10_0_0 + flow_8_10_0_0 + flow_9_10_0_0 - flow_10_1_0_0
   - flow_10_6_0_0 - flow_10_7_0_0 - flow_10_8_0_0 - flow_10_9_0_0
   - flow_10_11_0_0 - flow_10_12_0_0 - flow_10_14_0_0 - flow_10_15_0_0
   - flow_10_17_0_0 - flow_10_19_0_0 - flow_10_20_0_0 + flow_12_10_0_0
   + flow_15_10_0_0 = 1
 one_parent_11: edge_7_11_0_0 + edge_10_11_0_0 + edge_12_11_0_0
   + edge_15_11_0_0 + edge_19_11_0_0 = 1
 consume_one_flow_unit_11: flow_7_11_0_0 + flow_10_11_0_0 - flow_11_6_0_0
   - flow_11_7_0_0 - flow_11_8_0_0 - flow_11_9_0_0 - flow_11_15_0_0
   - flow_11_16_0_0 - flow_11_19_0_0 + flow_12_11_0_0 + flow_15_11_0_0
   + flow_19_11_0_0 = 1
 one_parent_12: edge_0_12_0_0 + edge_1_12_0_0 + edge_3_12_0_0
   + edge_4_12_0_0 + edge_6_12_0_0 + edge_7_12_0_0 + edge_8_12_0_0
   + edge_9_12_0_0 + edge_10_12_0_0 + edge_12_12_0_0 + edge_14_12_0_0
   + edge_15_12_0_0 + edge_16_12_0_0 + edge_17_12_0_0 + edge_18_12_0_0
   + edge_19_12_0_0 = 1
 consume_one_flow_unit_12: flow_0_12_0_0 + flow_1_12_0_0 + flow_3_12_0_0
   + flow_4_12_0_0 + flow_6_12_0_0 + flow_7_12_0_0 + flow_8_12_0_0
   + flow_9_12_0_0 + flow_10_12_0_0 - flow_12_1_0_0 - flow_12_3_0_0
   - flow_12_4_0_0 - flow_12_6_0_0 - flow_12_7_0_0 - flow_12_8_0_0
   - flow_12_9_0_0 - flow_12_10_0_0 - flow_12_11_0_0 - flow_12_13_0_0
   - flow_12_14_0_0 - flow_12_15_0_0 - flow_12_16_0_0 - flow_12_17_0_0
   - flow_12_18_0_0 - flow_12_19_0_0 - flow_12_20_0_0 + flow_14_12_0_0
   + flow_15_12_0_0 + flow_16_12_0_0 + flow_17_12_0_0 + flow_18_12_0_0
   + flow_19_12_0_0 = 1
 one_parent_13: edge_12_13_0_0 + edge_15_13_0_0 = 1
 consume_one_flow_unit_13: flow_12_13_0_0 - flow_13_15_0_0 + flow_15_13_0_0
   = 1
 one_parent_14: edge_10_14_0_0 + edge_12_14_0_0 + edge_15_14_0_0
   + edge_16_14_0_0 + edge_19_14_0_0 = 1
 consume_one_flow_unit_14: flow_10_14_0_0 + flow_12_14_0_0 - flow_14_6_0_0
   - flow_14_7_0_0 - flow_14_8_0_0 - flow_14_9_0_0 - flow_14_12_0_0
   - flow_14_15_0_0 - flow_14_16_0_0 - flow_14_19_0_0 - flow_14_20_0_0
   + flow_15_14_0_0 + flow_16_14_0_0 + flow_19_14_0_0 = 1
 one_parent_15: edge_0_15_0_0 + edge_1_15_0_0 + edge_3_15_0_0
   + edge_6_15_0_0 + edge_7_15_0_0 + edge_8_15_0_0 + edge_9_15_0_0
   + edge_10_15_0_0 + edge_11_15_0_0 + edge_12_15_0_0 + edge_13_15_0_0
   + edge_14_15_0_0 + edge_16_15_0_0 + edge_17_15_0_0 + edge_19_15_0_0 = 1
 consume_one_flow_unit_15: flow_0_15_0_0 + flow_1_15_0_0 + flow_3_15_0_0
   + flow_6_15_0_0 + flow_7_15_0_0 + flow_8_15_0_0 + flow_9_15_0_0
   + flow_10_15_0_0 + flow_11_15_0_0 + flow_12_15_0_0 + flow_13_15_0_0
   + flow_14_15_0_0 - flow_15_1_0_0 - flow_15_6_0_0 - flow_15_7_0_0
   - flow_15_8_0_0 - flow_15_9_0_0 - flow_15_10_0_0 - flow_15_11_0_0
   - flow_15_12_0_0 - flow_15_13_0_0 - flow_15_14_0_0 - flow_15_16_0_0
   - flow_15_17_0_0 - flow_15_19_0_0 - flow_15_20_0_0 + flow_16_15_0_0
   + flow_17_15_0_0 + flow_19_15_0_0 = 1
 one_parent_16: edge_0_16_0_0 + edge_6_16_0_0 + edge_7_16_0_0
   + edge_8_16_0_0 + edge_11_16_0_0 + edge_12_16_0_0 + edge_14_16_0_0
   + edge_15_16_0_0 + edge_17_16_0_0 + edge_19_16_0_0 = 1
 consume_one_flow_unit_16: flow_0_16_0_0 + flow_6_16_0_0 + flow_7_16_0_0
   + flow_8_16_0_0 + flow_11_16_0_0 + flow_12_16_0_0 + flow_14_16_0_0
   + flow_15_16_0_0 - flow_16_6_0_0 - flow_16_7_0_0 - flow_16_8_0_0
   - flow_16_9_0_0 - flow_16_12_0_0 - flow_16_14_0_0 - flow_16_15_0_0
   - flow_16_17_0_0 - flow_16_19_0_0 - flow_16_20_0_0 + flow_17_16_0_0
   + flow_19_16_0_0 = 1
 one_parent_17: edge_1_17_0_0 + edge_6_17_0_0 + edge_7_17_0_0
   + edge_8_17_0_0 + edge_9_17_0_0 + edge_10_17_0_0 + edge_12_17_0_0
   + edge_15_17_0_0 + edge_16_17_0_0 + edge_18_17_0_0 + edge_19_17_0_0
   + edge_20_17_0_0 = 1
 consume_one_flow_unit_17: flow_1_17_0_0 + flow_6_17_0_0 + flow_7_17_0_0
   + flow_8_17_0_0 + flow_9_17_0_0 + flow_10_17_0_0 + flow_12_17_0_0
   + flow_15_17_0_0 + flow_16_17_0_0 - flow_17_1_0_0 - flow_17_7_0_0
   - flow_17_8_0_0 - flow_17_12_0_0 - flow_17_15_0_0 - flow_17_16_0_0
   - flow_17_18_0_0 - flow_17_19_0_0 - flow_17_20_0_0 + flow_18_17_0_0
   + flow_19_17_0_0 + flow_20_17_0_0 = 1
 one_parent_18: edge_12_18_0_0 + edge_17_18_0_0 + edge_19_18_0_0 = 1
 consume_one_flow_unit_18: flow_12_18_0_0 + flow_17_18_0_0 - flow_18_12_0_0
   - flow_18_17_0_0 - flow_18_20_0_0 + flow_19_18_0_0 = 1
 one_parent_19: edge_0_19_0_0 + edge_1_19_0_0 + edge_3_19_0_0
   + edge_4_19_0_0 + edge_6_19_0_0 + edge_7_19_0_0 + edge_8_19_0_0
   + edge_9_19_0_0 + edge_10_19_0_0 + edge_11_19_0_0 + edge_12_19_0_0
   + edge_14_19_0_0 + edge_15_19_0_0 + edge_16_19_0_0 + edge_17_19_0_0
   + edge_20_19_0_0 = 1
 consume_one_flow_unit_19: flow_0_19_0_0 + flow_1_19_0_0 + flow_3_19_0_0
   + flow_4_19_0_0 + flow_6_19_0_0 + flow_7_19_0_0 + flow_8_19_0_0
   + flow_9_19_0_0 + flow_10_19_0_0 + flow_11_19_0_0 + flow_12_19_0_0
   + flow_14_19_0_0 + flow_15_19_0_0 + flow_16_19_0_0 + flow_17_19_0_0
   - flow_19_1_0_0 - flow_19_3_0_0 - flow_19_4_0_0 - flow_19_6_0_0
   - flow_19_7_0_0 - flow_19_8_0_0 - flow_19_9_0_0 - flow_19_11_0_0
   - flow_19_12_0_0 - flow_19_14_0_0 - flow_19_15_0_0 - flow_19_16_0_0
   - flow_19_17_0_0 - flow_19_18_0_0 - flow_19_20_0_0 + flow_20_19_0_0 = 1
 one_parent_20: edge_0_20_0_0 + edge_1_20_0_0 + edge_6_20_0_0
   + edge_7_20_0_0 + edge_8_20_0_0 + edge_9_20_0_0 + edge_10_20_0_0
   + edge_12_20_0_0 + edge_14_20_0_0 + edge_15_20_0_0 + edge_16_20_0_0
   + edge_17_20_0_0 + edge_18_20_0_0 + edge_19_20_0_0 = 1
 consume_one_flow_unit_20: flow_0_20_0_0 + flow_1_20_0_0 + flow_6_20_0_0
   + flow_7_20_0_0 + flow_8_20_0_0 + flow_9_20_0_0 + flow_10_20_0_0
   + flow_12_20_0_0 + flow_14_20_0_0 + flow_15_20_0_0 + flow_16_20_0_0
   + flow_17_20_0_0 + flow_18_20_0_0 + flow_19_20_0_0 - flow_20_1_0_0
   - flow_20_6_0_0 - flow_20_8_0_0 - flow_20_17_0_0 - flow_20_19_0_0 = 1
 root_flow: flow_0_1_0_0 + flow_0_3_0_0 + flow_0_4_0_0 + flow_0_6_0_0
   + flow_0_7_0_0 + flow_0_8_0_0 + flow_0_9_0_0 + flow_0_10_0_0
   + flow_0_12_0_0 + flow_0_15_0_0 + flow_0_16_0_0 + flow_0_19_0_0
   + flow_0_20_0_0 = 20
 inactive_no_flow_0_1_0_0: flow_0_1_0_0 - 1000 edge_0_1_0_0 <= 0
 inactive_no_flow_0_3_0_0: flow_0_3_0_0 - 1000 edge_0_3_0_0 <= 0
 inactive_no_flow_0_4_0_0: flow_0_4_0_0 - 1000 edge_0_4_0_0 <= 0
 inactive_no_flow_0_6_0_0: flow_0_6_0_0 - 1000 edge_0_6_0_0 <= 0
 inactive_no_flow_0_7_0_0: flow_0_7_0_0 - 1000 edge_0_7_0_0 <= 0
 inactive_no_flow_0_8_0_0: flow_0_8_0_0 - 1000 edge_0_8_0_0 <= 0
 inactive_no_flow_0_9_0_0: flow_0_9_0_0 - 1000 edge_0_9_0_0 <= 0
 inactive_no_flow_0_10_0_0: flow_0_10_0_0 - 1000 edge_0_10_0_0 <= 0
 inactive_no_flow_0_12_0_0: flow_0_12_0_0 - 1000 edge_0_12_0_0 <= 0
 inactive_no_flow_0_15_0_0: flow_0_15_0_0 - 1000 edge_0_15_0_0 <= 0
 inactive_no_flow_0_16_0_0: flow_0_16_0_0 - 1000 edge_0_16_0_0 <= 0
 inactive_no_flow_0_19_0_0: flow_0_19_0_0 - 1000 edge_0_19_0_0 <= 0
 inactive_no_flow_0_20_0_0: flow_0_20_0_0 - 1000 edge_0_20_0_0 <= 0
 inactive_no_flow_1_3_0_0: flow_1_3_0_0 - 1000 edge_1_3_0_0 <= 0
 inactive_no_flow_1_4_0_0: flow_1_4_0_0 - 1000 edge_1_4_0_0 <= 0
 inactive_no_flow_1_6_0_0: flow_1_6_0_0 - 1000 edge_1_6_0_0 <= 0
 inactive_no_flow_1_7_0_0: flow_1_7_0_0 - 1000 edge_1_7_0_0 <= 0
 inactive_no_flow_1_8_0_0: flow_1_8_0_0 - 1000 edge_1_8_0_0 <= 0
 inactive_no_flow_1_9_0_0: flow_1_9_0_0 - 1000 edge_1_9_0_0 <= 0
 inactive_no_flow_1_10_0_0: flow_1_10_0_0 - 1000 edge_1_10_0_0 <= 0
 inactive_no_flow_1_12_0_0: flow_1_12_0_0 - 1000 edge_1_12_0_0 <= 0
 inactive_no_flow_1_15_0_0: flow_1_15_0_0 - 1000 edge_1_15_0_0 <= 0
 inactive_no_flow_1_17_0_0: flow_1_17_0_0 - 1000 edge_1_17_0_0 <= 0
 inactive_no_flow_1_19_0_0: flow_1_19_0_0 - 1000 edge_1_19_0_0 <= 0
 inactive_no_flow_1_20_0_0: flow_1_20_0_0 - 1000 edge_1_20_0_0 <= 0
 inactive_no_flow_3_1_0_0: flow_3_1_0_0 - 1000 edge_3_1_0_0 <= 0
 inactive_no_flow_3_4_0_0: flow_3_4_0_0 - 1000 edge_3_4_0_0 <= 0
 inactive_no_flow_3_7_0_0: flow_3_7_0_0 - 1000 edge_3_7_0_0 <= 0
 inactive_no_flow_3_8_0_0: flow_3_8_0_0 - 1000 edge_3_8_0_0 <= 0
 inactive_no_flow_3_12_0_0: flow_3_12_0_0 - 1000 edge_3_12_0_0 <= 0
 inactive_no_flow_3_15_0_0: flow_3_15_0_0 - 1000 edge_3_15_0_0 <= 0
 inactive_no_flow_3_19_0_0: flow_3_19_0_0 - 1000 edge_3_19_0_0 <= 0
 inactive_no_flow_4_1_0_0: flow_4_1_0_0 - 1000 edge_4_1_0_0 <= 0
 inactive_no_flow_4_3_0_0: flow_4_3_0_0 - 1000 edge_4_3_0_0 <= 0
 inactive_no_flow_4_7_0_0: flow_4_7_0_0 - 1000 edge_4_7_0_0 <= 0
 inactive_no_flow_4_8_0_0: flow_4_8_0_0 - 1000 edge_4_8_0_0 <= 0
 inactive_no_flow_4_12_0_0: flow_4_12_0_0 - 1000 edge_4_12_0_0 <= 0
 inactive_no_flow_4_19_0_0: flow_4_19_0_0 - 1000 edge_4_19_0_0 <= 0
 inactive_no_flow_6_1_0_0: flow_6_1_0_0 - 1000 edge_6_1_0_0 <= 0
 inactive_no_flow_6_7_0_0: flow_6_7_0_0 - 1000 edge_6_7_0_0 <= 0
 inactive_no_flow_6_8_0_0: flow_6_8_0_0 - 1000 edge_6_8_0_0 <= 0
 inactive_no_flow_6_9_0_0: flow_6_9_0_0 - 1000 edge_6_9_0_0 <= 0
 inactive_no_flow_6_10_0_0: flow_6_10_0_0 - 1000 edge_6_10_0_0 <= 0
 inactive_no_flow_6_12_0_0: flow_6_12_0_0 - 1000 edge_6_12_0_0 <= 0
 inactive_no_flow_6_15_0_0: flow_6_15_0_0 - 1000 edge_6_15_0_0 <= 0
 inactive_no_flow_6_16_0_0: flow_6_16_0_0 - 1000 edge_6_16_0_0 <= 0
 inactive_no_flow_6_17_0_0: flow_6_17_0_0 - 1000 edge_6_17_0_0 <= 0
 inactive_no_flow_6_19_0_0: flow_6_19_0_0 - 1000 edge_6_19_0_0 <= 0
 inactive_no_flow_6_20_0_0: flow_6_20_0_0 - 1000 edge_6_20_0_0 <= 0
 inactive_no_flow_7_1_0_0: flow_7_1_0_0 - 1000 edge_7_1_0_0 <= 0
 inactive_no_flow_7_3_0_0: flow_7_3_0_0 - 1000 edge_7_3_0_0 <= 0
 inactive_no_flow_7_4_0_0: flow_7_4_0_0 - 1000 edge_7_4_0_0 <= 0
 inactive_no_flow_7_6_0_0: flow_7_6_0_0 - 1000 edge_7_6_0_0 <= 0
 inactive_no_flow_7_8_0_0: flow_7_8_0_0 - 1000 edge_7_8_0_0 <= 0
 inactive_no_flow_7_9_0_0: flow_7_9_0_0 - 1000 edge_7_9_0_0 <= 0
 inactive_no_flow_7_10_0_0: flow_7_10_0_0 - 1000 edge_7_10_0_0 <= 0
 inactive_no_flow_7_11_0_0: flow_7_11_0_0 - 1000 edge_7_11_0_0 <= 0
 inactive_no_flow_7_12_0_0: flow_7_12_0_0 - 1000 edge_7_12_0_0 <= 0
 inactive_no_flow_7_15_0_0: flow_7_15_0_0 - 1000 edge_7_15_0_0 <= 0
 inactive_no_flow_7_16_0_0: flow_7_16_0_0 - 1000 edge_7_16_0_0 <= 0
 inactive_no_flow_7_17_0_0: flow_7_17_0_0 - 1000 edge_7_17_0_0 <= 0
 inactive_no_flow_7_19_0_0: flow_7_19_0_0 - 1000 edge_7_19_0_0 <= 0
 inactive_no_flow_7_20_0_0: flow_7_20_0_0 - 1000 edge_7_20_0_0 <= 0
 inactive_no_flow_8_1_0_0: flow_8_1_0_0 - 1000 edge_8_1_0_0 <= 0
 inactive_no_flow_8_3_0_0: flow_8_3_0_0 - 1000 edge_8_3_0_0 <= 0
 inactive_no_flow_8_4_0_0: flow_8_4_0_0 - 1000 edge_8_4_0_0 <= 0
 inactive_no_flow_8_6_0_0: flow_8_6_0_0 - 1000 edge_8_6_0_0 <= 0
 inactive_no_flow_8_7_0_0: flow_8_7_0_0 - 1000 edge_8_7_0_0 <= 0
 inactive_no_flow_8_9_0_0: flow_8_9_0_0 - 1000 edge_8_9_0_0 <= 0
 inactive_no_flow_8_10_0_0: flow_8_10_0_0 - 1000 edge_8_10_0_0 <= 0
 inactive_no_flow_8_12_0_0: flow_8_12_0_0 - 1000 edge_8_12_0_0 <= 0
 inactive_no_flow_8_15_0_0: flow_8_15_0_0 - 1000 edge_8_15_0_0 <= 0
 inactive_no_flow_8_16_0_0: flow_8_16_0_0 - 1000 edge_8_16_0_0 <= 0
 inactive_no_flow_8_17_0_0: flow_8_17_0_0 - 1000 edge_8_17_0_0 <= 0
 inactive_no_flow_8_19_0_0: flow_8_19_0_0 - 1000 edge_8_19_0_0 <= 0
 inactive_no_flow_8_20_0_0: flow_8_20_0_0 - 1000 edge_8_20_0_0 <= 0
 inactive_no_flow_9_1_0_0: flow_9_1_0_0 - 1000 edge_9_1_0_0 <= 0
 inactive_no_flow_9_6_0_0: flow_9_6_0_0 - 1000 edge_9_6_0_0 <= 0
 inactive_no_flow_9_7_0_0: flow_9_7_0_0 - 1000 edge_9_7_0_0 <= 0
 inactive_no_flow_9_8_0_0: flow_9_8_0_0 - 1000 edge_9_8_0_0 <= 0
 inactive_no_flow_9_9_0_0: flow_9_9_0_0 - 1000 edge_9_9_0_0 <= 0
 inactive_no_flow_9_10_0_0: flow_9_10_0_0 - 1000 edge_9_10_0_0 <= 0
 inactive_no_flow_9_12_0_0: flow_9_12_0_0 - 1000 edge_9_12_0_0 <= 0
 inactive_no_flow_9_15_0_0: flow_9_15_0_0 - 1000 edge_9_15_0_0 <= 0
 inactive_no_flow_9_17_0_0: flow_9_17_0_0 - 1000 edge_9_17_0_0 <= 0
 inactive_no_flow_9_19_0_0: flow_9_19_0_0 - 1000 edge_9_19_0_0 <= 0
 inactive_no_flow_9_20_0_0: flow_9_20_0_0 - 1000 edge_9_20_0_0 <= 0
 inactive_no_flow_10_1_0_0: flow_10_1_0_0 - 1000 edge_10_1_0_0 <= 0
 inactive_no_flow_10_6_0_0: flow_10_6_0_0 - 1000 edge_10_6_0_0 <= 0
 inactive_no_flow_10_7_0_0: flow_10_7_0_0 - 1000 edge_10_7_0_0 <= 0
 inactive_no_flow_10_8_0_0: flow_10_8_0_0 - 1000 edge_10_8_0_0 <= 0
 inactive_no_flow_10_9_0_0: flow_10_9_0_0 - 1000 edge_10_9_0_0 <= 0
 inactive_no_flow_10_11_0_0: flow_10_11_0_0 - 1000 edge_10_11_0_0 <= 0
 inactive_no_flow_10_12_0_0: flow_10_12_0_0 - 1000 edge_10_12_0_0 <= 0
 inactive_no_flow_10_14_0_0: flow_10_14_0_0 - 1000 edge_10_14_0_0 <= 0
 inactive_no_flow_10_15_0_0: flow_10_15_0_0 - 1000 edge_10_15_0_0 <= 0
 inactive_no_flow_10_17_0_0: flow_10_17_0_0 - 1000 edge_10_17_0_0 <= 0
 inactive_no_flow_10_19_0_0: flow_10_19_0_0 - 1000 edge_10_19_0_0 <= 0
 inactive_no_flow_10_20_0_0: flow_10_20_0_0 - 1000 edge_10_20_0_0 <= 0
 inactive_no_flow_11_6_0_0: flow_11_6_0_0 - 1000 edge_11_6_0_0 <= 0
 inactive_no_flow_11_7_0_0: flow_11_7_0_0 - 1000 edge_11_7_0_0 <= 0
 inactive_no_flow_11_8_0_0: flow_11_8_0_0 - 1000 edge_11_8_0_0 <= 0
 inactive_no_flow_11_9_0_0: flow_11_9_0_0 - 1000 edge_11_9_0_0 <= 0
 inactive_no_flow_11_15_0_0: flow_11_15_0_0 - 1000 edge_11_15_0_0 <= 0
 inactive_no_flow_11_16_0_0: flow_11_16_0_0 - 1000 edge_11_16_0_0 <= 0
 inactive_no_flow_11_19_0_0: flow_11_19_0_0 - 1000 edge_11_19_0_0 <= 0
 inactive_no_flow_12_1_0_0: flow_12_1_0_0 - 1000 edge_12_1_0_0 <= 0
 inactive_no_flow_12_3_0_0: flow_12_3_0_0 - 1000 edge_12_3_0_0 <= 0
 inactive_no_flow_12_4_0_0: flow_12_4_0_0 - 1000 edge_12_4_0_0 <= 0
 inactive_no_flow_12_6_0_0: flow_12_6_0_0 - 1000 edge_12_6_0_0 <= 0
 inactive_no_flow_12_7_0_0: flow_12_7_0_0 - 1000 edge_12_7_0_0 <= 0
 inactive_no_flow_12_8_0_0: flow_12_8_0_0 - 1000 edge_12_8_0_0 <= 0
 inactive_no_flow_12_9_0_0: flow_12_9_0_0 - 1000 edge_12_9_0_0 <= 0
 inactive_no_flow_12_10_0_0: flow_12_10_0_0 - 1000 edge_12_10_0_0 <= 0
 inactive_no_flow_12_11_0_0: flow_12_11_0_0 - 1000 edge_12_11_0_0 <= 0
 inactive_no_flow_12_12_0_0: flow_12_12_0_0 - 1000 edge_12_12_0_0 <= 0
 inactive_no_flow_12_13_0_0: flow_12_13_0_0 - 1000 edge_12_13_0_0 <= 0
 inactive_no_flow_12_14_0_0: flow_12_14_0_0 - 1000 edge_12_14_0_0 <= 0
 inactive_no_flow_12_15_0_0: flow_12_15_0_0 - 1000 edge_12_15_0_0 <= 0
 inactive_no_flow_12_16_0_0: flow_12_16_0_0 - 1000 edge_12_16_0_0 <= 0
 inactive_no_flow_12_17_0_0: flow_12_17_0_0 - 1000 edge_12_17_0_0 <= 0
 inactive_no_flow_12_18_0_0: flow_12_18_0_0 - 1000 edge_12_18_0_0 <= 0
 inactive_no_flow_12_19_0_0: flow_12_19_0_0 - 1000 edge_12_19_0_0 <= 0
 inactive_no_flow_12_20_0_0: flow_12_20_0_0 - 1000 edge_12_20_0_0 <= 0
 inactive_no_flow_13_15_0_0: flow_13_15_0_0 - 1000 edge_13_15_0_0 <= 0
 inactive_no_flow_14_6_0_0: flow_14_6_0_0 - 1000 edge_14_6_0_0 <= 0
 inactive_no_flow_14_7_0_0: flow_14_7_0_0 - 1000 edge_14_7_0_0 <= 0
 inactive_no_flow_14_8_0_0: flow_14_8_0_0 - 1000 edge_14_8_0_0 <= 0
 inactive_no_flow_14_9_0_0: flow_14_9_0_0 - 1000 edge_14_9_0_0 <= 0
 inactive_no_flow_14_12_0_0: flow_14_12_0_0 - 1000 edge_14_12_0_0 <= 0
 inactive_no_flow_14_15_0_0: flow_14_15_0_0 - 1000 edge_14_15_0_0 <= 0
 inactive_no_flow_14_16_0_0: flow_14_16_0_0 - 1000 edge_14_16_0_0 <= 0
 inactive_no_flow_14_19_0_0: flow_14_19_0_0 - 1000 edge_14_19_0_0 <= 0
 inactive_no_flow_14_20_0_0: flow_14_20_0_0 - 1000 edge_14_20_0_0 <= 0
 inactive_no_flow_15_1_0_0: flow_15_1_0_0 - 1000 edge_15_1_0_0 <= 0
 inactive_no_flow_15_6_0_0: flow_15_6_0_0 - 1000 edge_15_6_0_0 <= 0
 inactive_no_flow_15_7_0_0: flow_15_7_0_0 - 1000 edge_15_7_0_0 <= 0
 inactive_no_flow_15_8_0_0: flow_15_8_0_0 - 1000 edge_15_8_0_0 <= 0
 inactive_no_flow_15_9_0_0: flow_15_9_0_0 - 1000 edge_15_9_0_0 <= 0
 inactive_no_flow_15_10_0_0: flow_15_10_0_0 - 1000 edge_15_10_0_0 <= 0
 inactive_no_flow_15_11_0_0: flow_15_11_0_0 - 1000 edge_15_11_0_0 <= 0
 inactive_no_flow_15_12_0_0: flow_15_12_0_0 - 1000 edge_15_12_0_0 <= 0
 inactive_no_flow_15_13_0_0: flow_15_13_0_0 - 1000 edge_15_13_0_0 <= 0
 inactive_no_flow_15_14_0_0: flow_15_14_0_0 - 1000 edge_15_14_0_0 <= 0
 inactive_no_flow_15_16_0_0: flow_15_16_0_0 - 1000 edge_15_16_0_0 <= 0
 inactive_no_flow_15_17_0_0: flow_15_17_0_0 - 1000 edge_15_17_0_0 <= 0
 inactive_no_flow_15_19_0_0: flow_15_19_0_0 - 1000 edge_15_19_0_0 <= 0
 inactive_no_flow_15_20_0_0: flow_15_20_0_0 - 1000 edge_15_20_0_0 <= 0
 inactive_no_flow_16_6_0_0: flow_16_6_0_0 - 1000 edge_16_6_0_0 <= 0
 inactive_no_flow_16_7_0_0: flow_16_7_0_0 - 1000 edge_16_7_0_0 <= 0
 inactive_no_flow_16_8_0_0: flow_16_8_0_0 - 1000 edge_16_8_0_0 <= 0
 inactive_no_flow_16_9_0_0: flow_16_9_0_0 - 1000 edge_16_9_0_0 <= 0
 inactive_no_flow_16_12_0_0: flow_16_12_0_0 - 1000 edge_16_12_0_0 <= 0
 inactive_no_flow_16_14_0_0: flow_16_14_0_0 - 1000 edge_16_14_0_0 <= 0
 inactive_no_flow_16_15_0_0: flow_16_15_0_0 - 1000 edge_16_15_0_0 <= 0
 inactive_no_flow_16_17_0_0: flow_16_17_0_0 - 1000 edge_16_17_0_0 <= 0
 inactive_no_flow_16_19_0_0: flow_16_19_0_0 - 1000 edge_16_19_0_0 <= 0
 inactive_no_flow_16_20_0_0: flow_16_20_0_0 - 1000 edge_16_20_0_0 <= 0
 inactive_no_flow_17_1_0_0: flow_17_1_0_0 - 1000 edge_17_1_0_0 <= 0
 inactive_no_flow_17_7_0_0: flow_17_7_0_0 - 1000 edge_17_7_0_0 <= 0
 inactive_no_flow_17_8_0_0: flow_17_8_0_0 - 1000 edge_17_8_0_0 <= 0
 inactive_no_flow_17_12_0_0: flow_17_12_0_0 - 1000 edge_17_12_0_0 <= 0
 inactive_no_flow_17_15_0_0: flow_17_15_0_0 - 1000 edge_17_15_0_0 <= 0
 inactive_no_flow_17_16_0_0: flow_17_16_0_0 - 1000 edge_17_16_0_0 <= 0
 inactive_no_flow_17_18_0_0: flow_17_18_0_0 - 1000 edge_17_18_0_0 <= 0
 inactive_no_flow_17_19_0_0: flow_17_19_0_0 - 1000 edge_17_19_0_0 <= 0
 inactive_no_flow_17_20_0_0: flow_17_20_0_0 - 1000 edge_17_20_0_0 <= 0
 inactive_no_flow_18_12_0_0: flow_18_12_0_0 - 1000 edge_18_12_0_0 <= 0
 inactive_no_flow_18_17_0_0: flow_18_17_0_0 - 1000 edge_18_17_0_0 <= 0
 inactive_no_flow_18_20_0_0: flow_18_20_0_0 - 1000 edge_18_20_0_0 <= 0
 inactive_no_flow_19_1_0_0: flow_19_1_0_0 - 1000 edge_19_1_0_0 <= 0
 inactive_no_flow_19_3_0_0: flow_19_3_0_0 - 1000 edge_19_3_0_0 <= 0
 inactive_no_flow_19_4_0_0: flow_19_4_0_0 - 1000 edge_19_4_0_0 <= 0
 inactive_no_flow_19_6_0_0: flow_19_6_0_0 - 1000 edge_19_6_0_0 <= 0
 inactive_no_flow_19_7_0_0: flow_19_7_0_0 - 1000 edge_19_7_0_0 <= 0
 inactive_no_flow_19_8_0_0: flow_19_8_0_0 - 1000 edge_19_8_0_0 <= 0
 inactive_no_flow_19_9_0_0: flow_19_9_0_0 - 1000 edge_19_9_0_0 <= 0
 inactive_no_flow_19_11_0_0: flow_19_11_0_0 - 1000 edge_19_11_0_0 <= 0
 inactive_no_flow_19_12_0_0: flow_19_12_0_0 - 1000 edge_19_12_0_0 <= 0
 inactive_no_flow_19_14_0_0: flow_19_14_0_0 - 1000 edge_19_14_0_0 <= 0
 inactive_no_flow_19_15_0_0: flow_19_15_0_0 - 1000 edge_19_15_0_0 <= 0
 inactive_no_flow_19_16_0_0: flow_19_16_0_0 - 1000 edge_19_16_0_0 <= 0
 inactive_no_flow_19_17_0_0: flow_19_17_0_0 - 1000 edge_19_17_0_0 <= 0
 inactive_no_flow_19_18_0_0: flow_19_18_0_0 - 1000 edge_19_18_0_0 <= 0
 inactive_no_flow_19_20_0_0: flow_19_20_0_0 - 1000 edge_19_20_0_0 <= 0
 inactive_no_flow_20_1_0_0: flow_20_1_0_0 - 1000 edge_20_1_0_0 <= 0
 inactive_no_flow_20_6_0_0: flow_20_6_0_0 - 1000 edge_20_6_0_0 <= 0
 inactive_no_flow_20_8_0_0: flow_20_8_0_0 - 1000 edge_20_8_0_0 <= 0
 inactive_no_flow_20_17_0_0: flow_20_17_0_0 - 1000 edge_20_17_0_0 <= 0
 inactive_no_flow_20_19_0_0: flow_20_19_0_0 - 1000 edge_20_19_0_0 <= 0
Bounds
Binaries
 edge_0_1_0_0 edge_0_3_0_0 edge_0_4_0_0 edge_0_6_0_0 edge_0_7_0_0
 edge_0_8_0_0 edge_0_9_0_0 edge_0_10_0_0 edge_0_12_0_0 edge_0_15_0_0
 edge_0_16_0_0 edge_0_19_0_0 edge_0_20_0_0 edge_1_3_0_0 edge_1_4_0_0
 edge_1_6_0_0 edge_1_7_0_0 edge_1_8_0_0 edge_1_9_0_0 edge_1_10_0_0
 edge_1_12_0_0 edge_1_15_0_0 edge_1_17_0_0 edge_1_19_0_0 edge_1_20_0_0
 edge_3_1_0_0 edge_3_4_0_0 edge_3_7_0_0 edge_3_8_0_0 edge_3_12_0_0
 edge_3_15_0_0 edge_3_19_0_0 edge_4_1_0_0 edge_4_3_0_0 edge_4_7_0_0
 edge_4_8_0_0 edge_4_12_0_0 edge_4_19_0_0 edge_6_1_0_0 edge_6_7_0_0
 edge_6_8_0_0 edge_6_9_0_0 edge_6_10_0_0 edge_6_12_0_0 edge_6_15_0_0
 edge_6_16_0_0 edge_6_17_0_0 edge_6_19_0_0 edge_6_20_0_0 edge_7_1_0_0
 edge_7_3_0_0 edge_7_4_0_0 edge_7_6_0_0 edge_7_8_0_0 edge_7_9_0_0
 edge_7_10_0_0 edge_7_11_0_0 edge_7_12_0_0 edge_7_15_0_0 edge_7_16_0_0
 edge_7_17_0_0 edge_7_19_0_0 edge_7_20_0_0 edge_8_1_0_0 edge_8_3_0_0
 edge_8_4_0_0 edge_8_6_0_0 edge_8_7_0_0 edge_8_9_0_0 edge_8_10_0_0
 edge_8_12_0_0 edge_8_15_0_0 edge_8_16_0_0 edge_8_17_0_0 edge_8_19_0_0
 edge_8_20_0_0 edge_9_1_0_0 edge_9_6_0_0 edge_9_7_0_0 edge_9_8_0_0
 edge_9_9_0_0 edge_9_10_0_0 edge_9_12_0_0 edge_9_15_0_0 edge_9_17_0_0
 edge_9_19_0_0 edge_9_20_0_0 edge_10_1_0_0 edge_10_6_0_0 edge_10_7_0_0
 edge_10_8_0_0 edge_10_9_0_0 edge_10_11_0_0 edge_10_12_0_0 edge_10_14_0_0
 edge_10_15_0_0 edge_10_17_0_0 edge_10_19_0_0 edge_10_20_0_0 edge_11_6_0_0
 edge_11_7_0_0 edge_11_8_0_0 edge_11_9_0_0 edge_11_15_0_0 edge_11_16_0_0
 edge_11_19_0_0 edge_12_1_0_0 edge_12_3_0_0 edge_12_4_0_0 edge_12_6_0_0
 edge_12_7_0_0 edge_12_8_0_0 edge_12_9_0_0 edge_12_10_0_0 edge_12_11_0_0
 edge_12_12_0_0 edge_12_13_0_0 edge_12_14_0_0 edge_12_15_0_0 edge_12_16_0_0
 edge_12_17_0_0 edge_12_18_0_0 edge_12_19_0_0 edge_12_20_0_0 edge_13_15_0_0
 edge_14_6_0_0 edge_14_7_0_0 edge_14_8_0_0 edge_14_9_0_0 edge_14_12_0_0
 edge_14_15_0_0 edge_14_16_0_0 edge_14_19_0_0 edge_14_20_0_0 edge_15_1_0_0
 edge_15_6_0_0 edge_15_7_0_0 edge_15_8_0_0 edge_15_9_0_0 edge_15_10_0_0
 edge_15_11_0_0 edge_15_12_0_0 edge_15_13_0_0 edge_15_14_0_0 edge_15_16_0_0
 edge_15_17_0_0 edge_15_19_0_0 edge_15_20_0_0 edge_16_6_0_0 edge_16_7_0_0
 edge_16_8_0_0 edge_16_9_0_0 edge_16_12_0_0 edge_16_14_0_0 edge_16_15_0_0
 edge_16_17_0_0 edge_16_19_0_0 edge_16_20_0_0 edge_17_1_0_0 edge_17_7_0_0
 edge_17_8_0_0 edge_17_12_0_0 edge_17_15_0_0 edge_17_16_0_0 edge_17_18_0_0
 edge_17_19_0_0 edge_17_20_0_0 edge_18_12_0_0 edge_18_17_0_0 edge_18_20_0_0
 edge_19_1_0_0 edge_19_3_0_0 edge_19_4_0_0 edge_19_6_0_0 edge_19_7_0_0
 edge_19_8_0_0 edge_19_9_0_0 edge_19_11_0_0 edge_19_12_0_0 edge_19_14_0_0
 edge_19_15_0_0 edge_19_16_0_0 edge_19_17_0_0 edge_19_18_0_0 edge_19_20_0_0
 edge_20_1_0_0 edge_20_6_0_0 edge_20_8_0_0 edge_20_17_0_0 edge_20_19_0_0
End
